
(set-logic HORN)
(define-fun Z_369 () Int 0)
(define-fun S_130 ((x Int)) Int (+ x 1))
(define-fun Z_366 () Int 0)
(define-fun S_129 ((x Int)) Int (+ x 1))
(declare-fun diseqInt (Int Int) Bool)
(declare-fun unS_135 (Int Int) Bool)
(declare-fun isZ_130 (Int) Bool)
(declare-fun isS_130 (Int) Bool)
(assert (forall ((x_3602 Int))
	(unS_135 x_3602 (S_130 x_3602))))
(assert (isZ_130 Z_369))
(assert (forall ((x_3604 Int))
	(isS_130 (S_130 x_3604))))
(assert (forall ((x_3605 Int))
	(diseqInt Z_369 (S_130 x_3605))))
(assert (forall ((x_3606 Int))
	(diseqInt (S_130 x_3606) Z_369)))
(assert (forall ((x_3607 Int) (x_3608 Int))
	(=> (diseqInt x_3607 x_3608) (diseqInt (S_130 x_3607) (S_130 x_3608)))))
(declare-fun add_67 (Int Int Int) Bool)
(declare-fun minus_67 (Int Int Int) Bool)
(declare-fun le_67 (Int Int) Bool)
(declare-fun ge_67 (Int Int) Bool)
(declare-fun lt_67 (Int Int) Bool)
(declare-fun gt_67 (Int Int) Bool)
(declare-fun mult_67 (Int Int Int) Bool)
(declare-fun div_67 (Int Int Int) Bool)
(declare-fun mod_67 (Int Int Int) Bool)
(assert (forall ((y_293 Int))
	(add_67 y_293 Z_369 y_293)))
(assert (forall ((x_3578 Int) (y_293 Int) (r_67 Int))
	(=> (add_67 r_67 x_3578 y_293) (add_67 (S_130 r_67) (S_130 x_3578) y_293))))
(assert (forall ((y_293 Int))
	(minus_67 Z_369 Z_369 y_293)))
(assert (forall ((x_3578 Int) (y_293 Int) (r_67 Int))
	(=> (minus_67 r_67 x_3578 y_293) (minus_67 (S_130 r_67) (S_130 x_3578) y_293))))
(assert (forall ((y_293 Int))
	(le_67 Z_369 y_293)))
(assert (forall ((x_3578 Int) (y_293 Int))
	(=> (le_67 x_3578 y_293) (le_67 (S_130 x_3578) (S_130 y_293)))))
(assert (forall ((y_293 Int))
	(ge_67 y_293 Z_369)))
(assert (forall ((x_3578 Int) (y_293 Int))
	(=> (ge_67 x_3578 y_293) (ge_67 (S_130 x_3578) (S_130 y_293)))))
(assert (forall ((y_293 Int))
	(lt_67 Z_369 (S_130 y_293))))
(assert (forall ((x_3578 Int) (y_293 Int))
	(=> (lt_67 x_3578 y_293) (lt_67 (S_130 x_3578) (S_130 y_293)))))
(assert (forall ((y_293 Int))
	(gt_67 (S_130 y_293) Z_369)))
(assert (forall ((x_3578 Int) (y_293 Int))
	(=> (gt_67 x_3578 y_293) (gt_67 (S_130 x_3578) (S_130 y_293)))))
(assert (forall ((y_293 Int))
	(mult_67 Z_369 Z_369 y_293)))
(assert (forall ((x_3578 Int) (y_293 Int) (r_67 Int) (z_370 Int))
	(=> (and (mult_67 r_67 x_3578 y_293) (add_67 z_370 r_67 y_293)) (mult_67 z_370 (S_130 x_3578) y_293))))
(assert (forall ((x_3578 Int) (y_293 Int))
	(=> (lt_67 x_3578 y_293) (div_67 Z_369 x_3578 y_293))))
(assert (forall ((x_3578 Int) (y_293 Int) (r_67 Int) (z_370 Int))
	(=> (and (ge_67 x_3578 y_293) (minus_67 z_370 x_3578 y_293) (div_67 r_67 z_370 y_293)) (div_67 (S_130 r_67) x_3578 y_293))))
(assert (forall ((x_3578 Int) (y_293 Int))
	(=> (lt_67 x_3578 y_293) (mod_67 x_3578 x_3578 y_293))))
(assert (forall ((x_3578 Int) (y_293 Int) (r_67 Int) (z_370 Int))
	(=> (and (ge_67 x_3578 y_293) (minus_67 z_370 x_3578 y_293) (mod_67 r_67 z_370 y_293)) (mod_67 r_67 x_3578 y_293))))
(declare-datatypes ((list_60 0)) (((nil_60) (cons_60 (head_120 Int) (tail_120 list_60)))))
(declare-fun diseqlist_60 (list_60 list_60) Bool)
(declare-fun head_121 (Int list_60) Bool)
(declare-fun tail_121 (list_60 list_60) Bool)
(declare-fun isnil_60 (list_60) Bool)
(declare-fun iscons_60 (list_60) Bool)
(assert (forall ((x_3580 Int) (x_3581 list_60))
	(head_121 x_3580 (cons_60 x_3580 x_3581))))
(assert (forall ((x_3580 Int) (x_3581 list_60))
	(tail_121 x_3581 (cons_60 x_3580 x_3581))))
(assert (isnil_60 nil_60))
(assert (forall ((x_3583 Int) (x_3584 list_60))
	(iscons_60 (cons_60 x_3583 x_3584))))
(assert (forall ((x_3585 Int) (x_3586 list_60))
	(diseqlist_60 nil_60 (cons_60 x_3585 x_3586))))
(assert (forall ((x_3587 Int) (x_3588 list_60))
	(diseqlist_60 (cons_60 x_3587 x_3588) nil_60)))
(assert (forall ((x_3589 Int) (x_3590 list_60) (x_3591 Int) (x_3592 list_60))
	(=> (diseqInt x_3589 x_3591) (diseqlist_60 (cons_60 x_3589 x_3590) (cons_60 x_3591 x_3592)))))
(assert (forall ((x_3589 Int) (x_3590 list_60) (x_3591 Int) (x_3592 list_60))
	(=> (diseqlist_60 x_3590 x_3592) (diseqlist_60 (cons_60 x_3589 x_3590) (cons_60 x_3591 x_3592)))))
(declare-fun diseqInt (Int Int) Bool)
(declare-fun projS_125 (Int Int) Bool)
(declare-fun isZ_129 (Int) Bool)
(declare-fun isS_129 (Int) Bool)
(assert (forall ((x_3594 Int))
	(projS_125 x_3594 (S_129 x_3594))))
(assert (isZ_129 Z_366))
(assert (forall ((x_3596 Int))
	(isS_129 (S_129 x_3596))))
(assert (forall ((x_3597 Int))
	(diseqInt Z_366 (S_129 x_3597))))
(assert (forall ((x_3598 Int))
	(diseqInt (S_129 x_3598) Z_366)))
(assert (forall ((x_3599 Int) (x_3600 Int))
	(=> (diseqInt x_3599 x_3600) (diseqInt (S_129 x_3599) (S_129 x_3600)))))
(declare-fun len_11 (Int list_60) Bool)
(assert (forall ((x_3564 Int) (y_290 Int) (xs_112 list_60))
	(=> (len_11 x_3564 xs_112) (len_11 (S_129 x_3564) (cons_60 y_290 xs_112)))))
(assert (len_11 Z_366 nil_60))
(declare-fun butlast_4 (list_60 list_60) Bool)
(assert (forall ((x_3567 list_60) (x_3558 Int) (x_3559 list_60) (y_291 Int))
	(=> (butlast_4 x_3567 (cons_60 x_3558 x_3559)) (butlast_4 (cons_60 y_291 x_3567) (cons_60 y_291 (cons_60 x_3558 x_3559))))))
(assert (forall ((y_291 Int))
	(butlast_4 nil_60 (cons_60 y_291 nil_60))))
(assert (butlast_4 nil_60 nil_60))
(declare-fun x_3560 (Int Int Int) Bool)
(assert (forall ((x_3570 Int) (x_3562 Int) (z_368 Int))
	(=> (x_3560 x_3570 z_368 x_3562) (x_3560 x_3570 (S_129 z_368) (S_129 x_3562)))))
(assert (forall ((z_368 Int))
	(x_3560 (S_129 z_368) (S_129 z_368) Z_366)))
(assert (forall ((y_292 Int))
	(x_3560 Z_366 Z_366 y_292)))
(assert (forall ((x_3574 list_60) (x_3575 Int) (x_3576 Int) (x_3577 Int) (xs_113 list_60))
	(=> (and true (diseqInt x_3575 x_3577) (butlast_4 x_3574 xs_113) (len_11 x_3575 x_3574) (len_11 x_3576 xs_113) (x_3560 x_3577 x_3576 (S_129 Z_366))) false)))
(check-sat)
